c Generated map
c Size: 8 * 8, weights in range: 1 to 10, walls: True, with ratio 0.1
c dim 10 of 10
c
p sp 64 91
c graph contains 64 nodes and 91 arcs
c
a 1 9 7
a 9 1 7
a 3 11 2
a 11 3 2
a 3 4 7
a 4 3 7
a 4 12 2
a 12 4 2
a 4 5 3
a 5 4 3
a 5 13 9
a 13 5 9
a 5 6 5
a 6 5 5
a 6 14 4
a 14 6 4
a 6 7 9
a 7 6 9
a 7 15 6
a 15 7 6
a 7 8 10
a 8 7 10
a 8 16 10
a 16 8 10
a 9 17 6
a 17 9 6
a 9 10 10
a 10 9 10
a 10 18 10
a 18 10 10
a 10 11 5
a 11 10 5
a 11 19 1
a 19 11 1
a 11 12 8
a 12 11 8
a 12 13 5
a 13 12 5
a 13 21 9
a 21 13 9
a 13 14 1
a 14 13 1
a 14 15 5
a 15 14 5
a 15 23 10
a 23 15 10
a 15 16 6
a 16 15 6
a 16 24 6
a 24 16 6
a 17 25 1
a 25 17 1
a 17 18 2
a 18 17 2
a 18 26 2
a 26 18 2
a 18 19 7
a 19 18 7
a 19 27 8
a 27 19 8
a 21 29 4
a 29 21 4
a 23 31 10
a 31 23 10
a 23 24 9
a 24 23 9
a 24 32 1
a 32 24 1
a 25 33 4
a 33 25 4
a 25 26 6
a 26 25 6
a 26 34 6
a 34 26 6
a 26 27 7
a 27 26 7
a 27 35 7
a 35 27 7
a 27 28 3
a 28 27 3
a 28 29 2
a 29 28 2
a 29 37 4
a 37 29 4
a 29 30 5
a 30 29 5
a 30 31 6
a 31 30 6
a 31 39 5
a 39 31 5
a 31 32 7
a 32 31 7
a 32 40 8
a 40 32 8
a 33 41 8
a 41 33 8
a 33 34 1
a 34 33 1
a 34 42 1
a 42 34 1
a 34 35 8
a 35 34 8
a 35 43 4
a 43 35 4
a 37 45 10
a 45 37 10
a 39 47 3
a 47 39 3
a 39 40 6
a 40 39 6
a 40 48 2
a 48 40 2
a 41 49 3
a 49 41 3
a 41 42 2
a 42 41 2
a 42 50 2
a 50 42 2
a 42 43 10
a 43 42 10
a 43 51 7
a 51 43 7
a 43 44 6
a 44 43 6
a 44 52 9
a 52 44 9
a 44 45 5
a 45 44 5
a 45 53 10
a 53 45 10
a 45 46 7
a 46 45 7
a 46 54 5
a 54 46 5
a 46 47 4
a 47 46 4
a 47 55 7
a 55 47 7
a 47 48 2
a 48 47 2
a 48 56 3
a 56 48 3
a 49 50 2
a 50 49 2
a 50 58 10
a 58 50 10
a 50 51 1
a 51 50 1
a 51 59 1
a 59 51 1
a 51 52 4
a 52 51 4
a 52 60 10
a 60 52 10
a 52 53 1
a 53 52 1
a 53 61 10
a 61 53 10
a 53 54 3
a 54 53 3
a 54 62 2
a 62 54 2
a 54 55 9
a 55 54 9
a 55 63 4
a 63 55 4
a 55 56 4
a 56 55 4
a 56 64 4
a 64 56 4
a 58 59 8
a 59 58 8
a 59 60 7
a 60 59 7
a 60 61 5
a 61 60 5
a 61 62 1
a 62 61 1
a 62 63 2
a 63 62 2
a 63 64 9
a 64 63 9
